; PUSH cw_0 NUMBER SWAP1 POP => NUMBER
(set-option :produce-proofs true)
; 
(set-info :status unknown)
(declare-fun storage_t ((_ BitVec 256) (_ BitVec 256) Int (_ BitVec 256)) (_ BitVec 256))
(declare-fun w_0 () (_ BitVec 256))
(declare-fun storage_s ((_ BitVec 256) (_ BitVec 256) Int (_ BitVec 256)) (_ BitVec 256))
(declare-fun exc_halt_t (Int) Bool)
(declare-fun exc_halt_s (Int) Bool)
(declare-fun stack_t ((_ BitVec 256) (_ BitVec 256) Int (_ BitVec 6)) (_ BitVec 256))
(declare-fun stack_s ((_ BitVec 256) (_ BitVec 256) Int (_ BitVec 6)) (_ BitVec 256))
(declare-fun sc_t (Int) (_ BitVec 6))
(declare-fun sc_s (Int) (_ BitVec 6))
(declare-fun used_gas_t ((_ BitVec 256) (_ BitVec 256) Int) Int)
(declare-fun used_gas_s ((_ BitVec 256) (_ BitVec 256) Int) Int)
(assert
 (exists ((x_NUMBER (_ BitVec 256)) )(let (($x11663 (forall ((w (_ BitVec 256)) )(let ((?x1981 (storage_t w_0 x_NUMBER 1 w)))
 (let ((?x10875 (storage_s w_0 x_NUMBER 4 w)))
 (= ?x10875 ?x1981))))
 ))
 (let (($x8377 (exc_halt_t 1)))
 (let (($x7172 (exc_halt_s 4)))
 (let (($x6210 (= $x7172 $x8377)))
 (let (($x7986 (forall ((n (_ BitVec 6)) )(let ((?x9336 (stack_t w_0 x_NUMBER 1 n)))
 (let ((?x11677 (stack_s w_0 x_NUMBER 4 n)))
 (let (($x11307 (= ?x11677 ?x9336)))
 (or (bvsle (sc_t 1) n) $x11307)))))
 ))
 (let ((?x7154 (sc_t 1)))
 (let ((?x4305 (sc_s 4)))
 (let (($x1088 (= ?x4305 ?x7154)))
 (let ((?x9589 (used_gas_t w_0 x_NUMBER 0)))
 (let ((?x3279 (used_gas_s w_0 x_NUMBER 0)))
 (let (($x1860 (= ?x3279 ?x9589)))
 (let (($x4460 (forall ((w (_ BitVec 256)) )(let ((?x10538 (storage_t w_0 x_NUMBER 0 w)))
 (let ((?x2777 (storage_s w_0 x_NUMBER 0 w)))
 (= ?x2777 ?x10538))))
 ))
 (let (($x56 (exc_halt_t 0)))
 (let (($x57 (exc_halt_s 0)))
 (let (($x58 (= $x57 $x56)))
 (let (($x7162 (forall ((n (_ BitVec 6)) )(let ((?x63 (sc_t 0)))
 (let (($x6552 (bvsle ?x63 n)))
 (let ((?x1584 (stack_t w_0 x_NUMBER 0 n)))
 (let ((?x10336 (stack_s w_0 x_NUMBER 0 n)))
 (let (($x3323 (= ?x10336 ?x1584)))
 (or $x3323 $x6552)))))))
 ))
 (let ((?x63 (sc_t 0)))
 (let ((?x72 (sc_s 0)))
 (let (($x73 (= ?x72 ?x63)))
 (let (($x10494 (= $x8377 (or $x56 (not (= ((_ extract 6 6) (bvadd (_ bv1 7) (concat (_ bv0 1) ?x63))) (_ bv0 1)))))))
 (let (($x6016 (forall ((w (_ BitVec 256)) )(let ((?x10538 (storage_t w_0 x_NUMBER 0 w)))
 (let ((?x1981 (storage_t w_0 x_NUMBER 1 w)))
 (= ?x1981 ?x10538))))
 ))
 (let (($x9136 (forall ((n (_ BitVec 6)) )(let ((?x63 (sc_t 0)))
 (let (($x6552 (bvsle ?x63 n)))
 (or $x6552 (= (stack_t w_0 x_NUMBER 1 n) (stack_t w_0 x_NUMBER 0 n))))))
 ))
 (let (($x11831 (= $x7172 (or (exc_halt_s 3) (not (bvsle (_ bv0 6) (bvadd (_ bv63 6) (sc_s 3))))))))
 (let (($x2474 (forall ((w (_ BitVec 256)) )(let ((?x10496 (storage_s w_0 x_NUMBER 3 w)))
 (let ((?x10875 (storage_s w_0 x_NUMBER 4 w)))
 (= ?x10875 ?x10496))))
 ))
 (let (($x3359 (forall ((n (_ BitVec 6)) )(or (bvsle (bvadd (_ bv63 6) (sc_s 3)) n) (= (stack_s w_0 x_NUMBER 4 n) (stack_s w_0 x_NUMBER 3 n))))
 ))
 (let (($x9364 (= (used_gas_s w_0 x_NUMBER 4) (+ 2 (used_gas_s w_0 x_NUMBER 3)))))
 (let (($x292 (exc_halt_s 3)))
 (let (($x10818 (= $x292 (or (exc_halt_s 2) (not (bvsle (_ bv0 6) (bvadd (_ bv62 6) (sc_s 2))))))))
 (let (($x7614 (forall ((w (_ BitVec 256)) )(let ((?x11192 (storage_s w_0 x_NUMBER 2 w)))
 (let ((?x10496 (storage_s w_0 x_NUMBER 3 w)))
 (= ?x10496 ?x11192))))
 ))
 (let (($x9372 (forall ((n (_ BitVec 6)) )(or (bvsle (bvadd (_ bv62 6) (sc_s 2)) n) (= (stack_s w_0 x_NUMBER 3 n) (stack_s w_0 x_NUMBER 2 n))))
 ))
 (let ((?x369 (used_gas_s w_0 x_NUMBER 3)))
 (let (($x8142 (= (stack_s w_0 x_NUMBER 3 (bvadd (_ bv62 6) (sc_s 3))) (stack_s w_0 x_NUMBER 2 (bvadd (_ bv63 6) (sc_s 2))))))
 (let (($x1658 (= (stack_s w_0 x_NUMBER 3 (bvadd (_ bv63 6) (sc_s 3))) (stack_s w_0 x_NUMBER 2 (bvadd (_ bv62 6) (sc_s 2))))))
 (let (($x189 (exc_halt_s 1)))
 (let (($x11948 (or $x189 (not (= ((_ extract 6 6) (bvadd (_ bv1 7) (concat (_ bv0 1) (sc_s 1)))) (_ bv0 1))))))
 (let (($x247 (exc_halt_s 2)))
 (let (($x11852 (forall ((w (_ BitVec 256)) )(let ((?x10763 (storage_s w_0 x_NUMBER 1 w)))
 (let ((?x11192 (storage_s w_0 x_NUMBER 2 w)))
 (= ?x11192 ?x10763))))
 ))
 (let (($x10473 (forall ((n (_ BitVec 6)) )(or (= (stack_s w_0 x_NUMBER 2 n) (stack_s w_0 x_NUMBER 1 n)) (bvsle (sc_s 1) n)))
 ))
 (let ((?x10347 (used_gas_s w_0 x_NUMBER 2)))
 (let (($x1616 (= $x189 (or $x57 (not (= ((_ extract 6 6) (bvadd (_ bv1 7) (concat (_ bv0 1) ?x72))) (_ bv0 1)))))))
 (let (($x2862 (forall ((w (_ BitVec 256)) )(let ((?x2777 (storage_s w_0 x_NUMBER 0 w)))
 (let ((?x10763 (storage_s w_0 x_NUMBER 1 w)))
 (= ?x10763 ?x2777))))
 ))
 (let (($x6263 (forall ((n (_ BitVec 6)) )(or (bvsle (sc_s 0) n) (= (stack_s w_0 x_NUMBER 1 n) (stack_s w_0 x_NUMBER 0 n))))
 ))
 (let (($x8136 (forall ((w (_ BitVec 256)) )(let ((?x2777 (storage_s w_0 x_NUMBER 0 w)))
 (= ?x2777 (_ bv0 256))))
 ))
 (let (($x11264 (= ?x3279 0)))
 (let (($x3365 (= ?x72 (_ bv0 6))))
 (and $x3365 (not $x57) $x11264 $x8136 (= (stack_s w_0 x_NUMBER 1 ?x72) w_0) (= (used_gas_s w_0 x_NUMBER 1) (+ 3 ?x3279)) (= (sc_s 1) (bvadd (_ bv1 6) ?x72)) $x6263 $x2862 $x1616 (= (stack_s w_0 x_NUMBER 2 (sc_s 1)) x_NUMBER) (= ?x10347 (+ 2 (used_gas_s w_0 x_NUMBER 1))) (= (sc_s 2) (bvadd (_ bv1 6) (sc_s 1))) $x10473 $x11852 (= $x247 $x11948) $x1658 $x8142 (= ?x369 (+ 3 ?x10347)) (= (sc_s 3) (sc_s 2)) $x9372 $x7614 $x10818 $x9364 (= ?x4305 (bvadd (_ bv63 6) (sc_s 3))) $x3359 $x2474 $x11831 (= (stack_t w_0 x_NUMBER 1 ?x63) x_NUMBER) (= (used_gas_t w_0 x_NUMBER 1) (+ 2 ?x9589)) (= ?x7154 (bvadd (_ bv1 6) ?x63)) $x9136 $x6016 $x10494 $x73 $x7162 $x58 $x4460 $x1860 (not (and $x1088 $x7986 $x6210 $x11663)))))))))))))))))))))))))))))))))))))))))))))))))
 )
(check-sat)
(get-proof)
